<?xml version="1.0" encoding="UTF-8"?><osil xmlns="os.optimizationservices.org" xmlns:xsi="http://www.w3.org/2001/XMLSchema-instance" xsi:schemaLocation="os.optimizationservices.org http://www.optimizationservices.org/schemas/2.0/OSiL.xsd"><instanceHeader><name>gastransnlp</name></instanceHeader><instanceData><variables numberOfVariables="64"><var name="x1" lb="-INF"/><var name="x2" lb="-INF"/><var name="x3" lb="-INF"/><var name="x4" lb="-INF"/><var name="x5" lb="-INF"/><var name="x6" lb="-INF"/><var name="x7" lb="-INF"/><var name="x8" lb="-INF"/><var name="x9" lb="-INF"/><var name="x10"/><var name="x11"/><var name="x12" lb="-INF"/><var name="x13" lb="-INF"/><var name="x14" lb="-INF"/><var name="x15" lb="-INF"/><var name="x16" lb="-INF"/><var name="x17" lb="-INF"/><var name="x18" lb="-INF"/><var name="x19" lb="-INF"/><var name="x20" lb="-INF"/><var name="x21" lb="-INF"/><var name="x22"/><var name="x23" lb="-INF"/><var name="x24" lb="-INF"/><var name="x25" ub="1.2"/><var name="x26" lb="-INF" ub="-4.034"/><var name="x27" lb="-INF" ub="-.222"/><var name="x28" ub="0"/><var name="x29" lb="-INF" ub="-15.616"/><var name="x30" lb="-INF" ub="-3.918"/><var name="x31" ub="8.4"/><var name="x32" lb="-INF" ub="-5.256"/><var name="x33" lb="-INF" ub="-6.385"/><var name="x34" ub="4.8"/><var name="x35" lb="-INF" ub="-6.848"/><var name="x36" lb="-INF" ub="-2.12"/><var name="x37" lb="-INF" ub="-1.919"/><var name="x38" ub=".96"/><var name="x39" ub="0"/><var name="x40" lb="20.344" ub="22.012"/><var name="x41" ub="0"/><var name="x42" ub="0"/><var name="x43" lb="8.87" ub="11.594"/><var name="x44" ub="0"/><var name="x45" ub="4382.44"/><var name="x46" lb="900" ub="6.4e3"/><var name="x47" ub="4382.44"/><var name="x48" ub="4382.44"/><var name="x49" lb="2.5e3" ub="4382.44"/><var name="x50" lb="900" ub="6.4e3"/><var name="x51" ub="5929"/><var name="x52" lb="900" ub="6.4e3"/><var name="x53" lb="900" ub="4382.44"/><var name="x54" ub="5929"/><var name="x55" ub="4382.44"/><var name="x56" ub="4382.44"/><var name="x57" lb="625" ub="4382.44"/><var name="x58" ub="4382.44"/><var name="x59" ub="3969"/><var name="x60" lb="2.5e3" ub="4382.44"/><var name="x61" ub="4382.44"/><var name="x62" ub="4382.44"/><var name="x63" ub="5929"/><var name="x64" ub="6.4e3"/></variables><objectives><obj maxOrMin="min" name="defObj_objvar" numberOfObjCoef="5"><coef idx="30">2.28</coef><coef idx="33">2.28</coef><coef idx="37">1.68</coef><coef idx="39">1.68</coef><coef idx="42">2.28</coef></obj></objectives><constraints numberOfConstraints="44"><con name="e1" lb="0" ub="0"/><con name="e2" lb="0" ub="0"/><con name="e3" lb="0" ub="0"/><con name="e4" lb="0" ub="0"/><con name="e5" lb="0" ub="0"/><con name="e6" lb="0" ub="0"/><con name="e7" lb="0" ub="0"/><con name="e8" lb="0" ub="0"/><con name="e9" lb="0" ub="0"/><con name="e10" lb="0" ub="0"/><con name="e11" lb="0" ub="0"/><con name="e12" lb="0" ub="0"/><con name="e13" lb="0" ub="0"/><con name="e14" lb="0" ub="0"/><con name="e15" lb="0" ub="0"/><con name="e16" lb="0" ub="0"/><con name="e17" lb="0" ub="0"/><con name="e18" lb="0" ub="0"/><con name="e19" lb="0" ub="0"/><con name="e20" lb="0" ub="0"/><con name="e21" lb="0" ub="0"/><con name="e22" lb="0" ub="0"/><con name="e23" lb="0" ub="0"/><con name="e24" lb="0" ub="0"/><con name="e25" lb="0" ub="0"/><con name="e26" lb="0" ub="0"/><con name="e27" lb="0" ub="0"/><con name="e28" lb="0" ub="0"/><con name="e29" lb="0" ub="0"/><con name="e30" lb="0" ub="0"/><con name="e31" lb="0" ub="0"/><con name="e32" lb="0" ub="0"/><con name="e33" lb="0" ub="0"/><con name="e34" lb="0" ub="0"/><con name="e35" lb="0" ub="0"/><con name="e36" lb="0" ub="0"/><con name="e37" lb="0" ub="0"/><con name="e38" lb="0" ub="0"/><con name="e39" lb="0" ub="0"/><con name="e40" lb="0" ub="0"/><con name="e41" lb="0" ub="0"/><con name="e42" lb="0"/><con name="e43" lb="0"/><con name="e44" lb="0"/></constraints><linearConstraintCoefficients numberOfValues="116"><start><el mult="4" incr="3">0</el><el>14</el><el>16</el><el>20</el><el>25</el><el>28</el><el>33</el><el mult="3" incr="3">35</el><el>43</el><el mult="4" incr="3">47</el><el>61</el><el>64</el><el mult="25" incr="2">68</el></start><colIdx><el>16</el><el>17</el><el>24</el><el>5</el><el>6</el><el>25</el><el>22</el><el>23</el><el>26</el><el mult="4" incr="1">9</el><el>27</el><el>19</el><el>28</el><el mult="3" incr="1">2</el><el>29</el><el mult="4" incr="1">0</el><el>30</el><el>6</el><el>7</el><el>31</el><el mult="4" incr="1">11</el><el>32</el><el>5</el><el>33</el><el>18</el><el>19</el><el>34</el><el>15</el><el>16</el><el>35</el><el>23</el><el>36</el><el>8</el><el>17</el><el>18</el><el>37</el><el>21</el><el>22</el><el>38</el><el>9</el><el>10</el><el>39</el><el>20</el><el>21</el><el>40</el><el mult="3" incr="1">13</el><el>20</el><el>41</el><el>0</el><el>1</el><el>42</el><el>4</el><el>7</el><el>8</el><el>43</el><el>50</el><el>62</el><el>50</el><el>62</el><el>49</el><el>50</el><el>49</el><el>50</el><el>49</el><el>63</el><el>45</el><el>53</el><el>45</el><el mult="2">51</el><el>63</el><el>57</el><el>63</el><el>47</el><el>52</el><el>47</el><el mult="2">52</el><el>61</el><el>52</el><el>61</el><el>55</el><el>61</el><el>44</el><el>55</el><el>44</el><el>57</el><el>54</el><el>57</el><el mult="3" incr="6">48</el><el>61</el><el>46</el><el>58</el><el>46</el><el>56</el><el>47</el><el>59</el><el>47</el><el>59</el><el>58</el><el>60</el></colIdx><value><el>-1</el><el>1</el><el mult="2">-1</el><el>1</el><el mult="2">-1</el><el>1</el><el mult="3">-1</el><el mult="2">1</el><el mult="5">-1</el><el>1</el><el mult="3">-1</el><el mult="2">1</el><el mult="2">-1</el><el>1</el><el mult="3">-1</el><el mult="2">1</el><el>-1</el><el>1</el><el mult="2">-1</el><el>1</el><el mult="2">-1</el><el>1</el><el mult="5">-1</el><el>1</el><el mult="2">-1</el><el>1</el><el>-1</el><el mult="2">1</el><el mult="2">-1</el><el>1</el><el mult="3">-1</el><el mult="2">1</el><el>-1</el><el mult="2">1</el><el mult="3">-1</el><el>1</el><el>-1</el><el>8.99076279639866</el><el>-8.99076279639866</el><el>8.99076279639866</el><el>-8.99076279639866</el><el>5.99384186426577</el><el>-5.99384186426577</el><el>5.99384186426577</el><el>-5.99384186426577</el><el>-1.38319427636902</el><el>1.38319427636902</el><el>9.93769948466698e-2</el><el>-9.93769948466698e-2</el><el>-.147352095807131</el><el>.147352095807131</el><el>-.224905830442463</el><el>.224905830442463</el><el>.653873657919902</el><el>-.653873657919902</el><el>-1.79815255927973</el><el>1.79815255927973</el><el>-2.65962529480588e-2</el><el>2.65962529480588e-2</el><el>-1.43852204742379</el><el>1.43852204742379</el><el>-2.1277002358447e-2</el><el>2.1277002358447e-2</el><el>.856263123466539</el><el>-.856263123466539</el><el>.899076279639866</el><el>-.899076279639866</el><el>-7.19261023711893</el><el>7.19261023711893</el><el>3.59630511855946</el><el>-3.59630511855946</el><el>1.43852204742379</el><el>-1.43852204742379</el><el>5.09935163731392e-2</el><el>-5.09935163731392e-2</el><el>1.6882734118691e-3</el><el>-1.6882734118691e-3</el><el>-2.75751323938619e-2</el><el>2.75751323938619e-2</el><el>7.19261023711893</el><el>-7.19261023711893</el><el>.106385011792235</el><el>-.106385011792235</el><el>6.3634920908912e-3</el><el>-6.3634920908912e-3</el></value></linearConstraintCoefficients><quadraticCoefficients numberOfQuadraticTerms="3"><qTerm idx="41" idxOne="9" idxTwo="9" coef="-1"/><qTerm idx="42" idxOne="10" idxTwo="10" coef="-1"/><qTerm idx="43" idxOne="21" idxTwo="21" coef="-1"/></quadraticCoefficients><nonlinearExpressions numberOfNonlinearExpressions="21"><nl idx="20"><signpower><variable idx="0"/><number value="2"/></signpower></nl><nl idx="21"><signpower><variable idx="1"/><number value="2"/></signpower></nl><nl idx="22"><signpower><variable idx="2"/><number value="2"/></signpower></nl><nl idx="23"><signpower><variable idx="3"/><number value="2"/></signpower></nl><nl idx="24"><signpower><variable idx="4"/><number value="2"/></signpower></nl><nl idx="25"><signpower><variable idx="5"/><number value="2"/></signpower></nl><nl idx="26"><signpower><variable idx="6"/><number value="2"/></signpower></nl><nl idx="27"><signpower><variable idx="7"/><number value="2"/></signpower></nl><nl idx="28"><signpower><variable idx="8"/><number value="2"/></signpower></nl><nl idx="29"><signpower><variable idx="11"/><number value="2"/></signpower></nl><nl idx="30"><signpower><variable idx="12"/><number value="2"/></signpower></nl><nl idx="31"><signpower><variable idx="13"/><number value="2"/></signpower></nl><nl idx="32"><signpower><variable idx="14"/><number value="2"/></signpower></nl><nl idx="33"><signpower><variable idx="15"/><number value="2"/></signpower></nl><nl idx="34"><signpower><variable idx="16"/><number value="2"/></signpower></nl><nl idx="35"><signpower><variable idx="17"/><number value="2"/></signpower></nl><nl idx="36"><signpower><variable idx="18"/><number value="2"/></signpower></nl><nl idx="37"><signpower><variable idx="19"/><number value="2"/></signpower></nl><nl idx="38"><signpower><variable idx="20"/><number value="2"/></signpower></nl><nl idx="39"><signpower><variable idx="22"/><number value="2"/></signpower></nl><nl idx="40"><signpower><variable idx="23"/><number value="2"/></signpower></nl></nonlinearExpressions></instanceData></osil>